SCIP Status        : problem is solved [optimal solution found]
Total Time         :     124.42
  solving          :     124.41
  presolving       :       0.09 (included in solving)
  reading          :       0.01
  copying          :       0.14 (25 #copies) (minimal 0.00, maximal 0.01, average 0.01)
Original Problem   :
  Problem name     : sfacloc2_4_80
  Variables        : 400 (62 binary, 60 integer, 0 implicit integer, 278 continuous)
  Constraints      : 2371 initial, 2371 maximal
  Objective        : minimize, 15 non-zeros (abs.min = 1, abs.max = 1)
Presolved Problem  :
  Problem name     : t_sfacloc2_4_80
  Variables        : 430 (98 binary, 0 integer, 0 implicit integer, 332 continuous)
  Constraints      : 1991 initial, 2089 maximal
  Objective        : minimize, 15 non-zeros (abs.min = 1, abs.max = 1)
  Nonzeros         : 6962 constraint, 644 clique table
Presolvers         :   ExecTime  SetupTime  Calls  FixedVars   AggrVars   ChgTypes  ChgBounds   AddHoles    DelCons    AddCons   ChgSides   ChgCoefs
  boundshift       :       0.00       0.00      0          0          0          0          0          0          0          0          0          0
  convertinttobin  :       0.00       0.00      0          0          0          0          0          0          0          0          0          0
  domcol           :       0.00       0.00      1          0          0          0          0          0          0          0          0          0
  dualagg          :       0.00       0.00      0          0          0          0          0          0          0          0          0          0
  dualcomp         :       0.00       0.00      1          0          0          0          0          0          0          0          0          0
  dualinfer        :       0.00       0.00      0          0          0          0          0          0          0          0          0          0
  dualsparsify     :       0.00       0.00      1          0          0          0          0          0          0          0          0          0
  gateextraction   :       0.00       0.00      1          0          0          0          0          0          0          0          0          0
  implics          :       0.00       0.00      3          0          0          0          0          0          0          0          0          0
  inttobinary      :       0.00       0.00      0          0          0          0          0          0          0          0          0          0
  qpkktref         :       0.00       0.00      0          0          0          0          0          0          0          0          0          0
  redvub           :       0.00       0.00      0          0          0          0          0          0          0          0          0          0
  sparsify         :       0.00       0.00      1          0          0          0          0          0          0          0          0          0
  stuffing         :       0.00       0.00      0          0          0          0          0          0          0          0          0          0
  trivial          :       0.00       0.00      6          0          0          0          0          0          0          0          0          0
  tworowbnd        :       0.00       0.00      0          0          0          0          0          0          0          0          0          0
  dualfix          :       0.00       0.00      6         18          0          0          0          0          0          0          0          0
  genvbounds       :       0.00       0.00      0          0          0          0          0          0          0          0          0          0
  probing          :       0.01       0.00      1          0          0          0          0          0          0          0          0          0
  pseudoobj        :       0.00       0.00      0          0          0          0          0          0          0          0          0          0
  symmetry         :       0.00       0.00      1          0          0          0          0          0          0          0          0          0
  vbounds          :       0.00       0.00      1          0          0          0          0          0          0          0          0          0
  varbound         :       0.00       0.00      2          0          0          0          0          0          0          0          0          0
  setppc           :       0.00       0.00      3          0          0          0          0          0          0          0          0          0
  linear           :       0.06       0.00      9          0        132          0          0          0        380          0        274         56
  logicor          :       0.00       0.00      3          0          0          0          0          0          0          0          0          0
  bounddisjunction :       0.00       0.00      0          0          0          0          0          0          0          0          0          0
  nonlinear        :       0.01       0.00     10          0          0          0          0          0          0          0          0        -56
  benders          :       0.00       0.00      0          0          0          0          0          0          0          0          0          0
  components       :       0.00       0.00      1          0          0          0          0          0          0          0          0          0
  root node        :          -          -      -          5          -          -        104          -          -          -          -          -
Constraints        :     Number  MaxNumber  #Separate #Propagate    #EnfoLP    #EnfoRelax  #EnfoPS    #Check   #ResProp    Cutoffs    DomReds       Cuts    Applied      Conss   Children
  benderslp        :          0          0          0          0       8603          0          0       1704          0          0          0          0          0          0          0
  integral         :          0          0          0          0       8603          0          0       1704          0          0       1288          0          0        117      16278
  varbound         :         38         38         12      54710         10          0          0       1699          1          3      29040          0          0          0          0
  setppc           :        167        167         12      54781          3          0          0        349        391         63      42943          0          0          0          0
  linear           :        231+       241         12      55541         17          0          0        331        606        264      71118          0          0          0          0
  logicor          :       1495+      1588         12      14126         17          0          0        331         26          5      13718          0          0          0          0
  bounddisjunction :          0+         4          0       3178          0          0          0          0          0          1          2          0          0          0          0
  nonlinear        :         60         60      16832      55281        148          0          0        331          0          5     113171      25249      25078          0        232
  benders          :          0          0          0          0         17          0          0         37          0          0          0          0          0          0          0
  countsols        :          0          0          0          0         17          0          0         37          0          0          0          0          0          0          0
  components       :          0          0          0          0          0          0          0          0          0          0          0          0          0          0          0
Constraint Timings :  TotalTime  SetupTime   Separate  Propagate     EnfoLP     EnfoPS     EnfoRelax   Check    ResProp    SB-Prop
  benderslp        :       0.00       0.00       0.00       0.00       0.00       0.00       0.00       0.00       0.00       0.00
  integral         :       3.91       0.00       0.00       0.00       3.91       0.00       0.00       0.00       0.00       0.00
  varbound         :       0.16       0.00       0.00       0.14       0.00       0.00       0.00       0.01       0.00       0.01
  setppc           :       0.36       0.00       0.00       0.29       0.00       0.00       0.00       0.01       0.00       0.06
  linear           :       0.39       0.00       0.00       0.34       0.00       0.00       0.00       0.01       0.00       0.04
  logicor          :       0.79       0.00       0.00       0.70       0.00       0.00       0.00       0.02       0.00       0.06
  bounddisjunction :       0.00       0.00       0.00       0.00       0.00       0.00       0.00       0.00       0.00       0.00
  nonlinear        :      23.39       0.00      21.88       1.34       0.01       0.00       0.00       0.03       0.00       0.13
  benders          :       0.00       0.00       0.00       0.00       0.00       0.00       0.00       0.00       0.00       0.00
  countsols        :       0.00       0.00       0.00       0.00       0.00       0.00       0.00       0.00       0.00       0.00
  components       :       0.01       0.00       0.00       0.01       0.00       0.00       0.00       0.00       0.00       0.00
Propagators        : #Propagate   #ResProp    Cutoffs    DomReds
  dualfix          :          3          0          0          0
  genvbounds       :       4625          0          0       5963
  nlobbt           :          0          0          0          0
  obbt             :          2          0          0          0
  probing          :          0          0          0          0
  pseudoobj        :      55469          0          2       3636
  redcost          :      26043          0          0          0
  rootredcost      :         30          0          0         26
  symmetry         :          0          0          0          0
  vbounds          :      33821          0          0          0
Propagator Timings :  TotalTime  SetupTime   Presolve  Propagate    ResProp    SB-Prop
  dualfix          :       0.00       0.00       0.00       0.00       0.00       0.00
  genvbounds       :       0.04       0.00       0.00       0.04       0.00       0.00
  nlobbt           :       0.00       0.00       0.00       0.00       0.00       0.00
  obbt             :       0.26       0.00       0.00       0.26       0.00       0.00
  probing          :       0.01       0.00       0.01       0.00       0.00       0.00
  pseudoobj        :       0.10       0.00       0.00       0.10       0.00       0.00
  redcost          :       0.11       0.00       0.00       0.11       0.00       0.00
  rootredcost      :       0.02       0.00       0.00       0.01       0.00       0.00
  symmetry         :       0.01       0.00       0.00       0.01       0.00       0.00
  vbounds          :       0.03       0.00       0.00       0.03       0.00       0.00
Conflict Analysis  :       Time      Calls    Success    DomReds  Conflicts   Literals    Reconvs ReconvLits   Dualrays   Nonzeros   LP Iters   (pool size: [10000,10000])
  propagation      :       0.00         86         69          -        226       12.0          2        9.5          -          -          -
  infeasible LP    :       0.00          9          9          -         34       12.4          0        0.0          9       29.1          0
  bound exceed. LP :       0.24       2241        153          -          3       11.3          0        0.0        152       54.5         40
  strong branching :       0.00          0          0          -          0        0.0          0        0.0          -          -          0
  pseudo solution  :       0.00          0          0          -          0        0.0          0        0.0          -          -          -
  applied globally :       0.00          -          -          0        131        8.7          -          -          9          -          -
  applied locally  :          -          -          -          0          3       17.0          -          -        152          -          -
Separators         :   ExecTime  SetupTime      Calls  RootCalls    Cutoffs    DomReds  FoundCuts ViaPoolAdd  DirectAdd    Applied ViaPoolApp  DirectApp      Conss
  cut pool         :       0.17          -       2652         24          -          -       6388       9134          -          -          -          -          -    (maximal pool size:       1428)
  aggregation      :       0.38       0.00        521         12          0          0       1526       1207        161        292        232         60          0
  > cmir           :          -          -          -          -          -          -          -       1113        122        205        162         43          -
  > flowcover      :          -          -          -          -          -          -          -         67         24         64         53         11          -
  > knapsackcover  :          -          -          -          -          -          -          -         27         15         23         17          6          -
  cgmip            :       0.00       0.00          0          0          0          0          0          0          0          0          0          0          0
  clique           :       0.00       0.00         12         12          0          0          0          0          0          0          0          0          0
  closecuts        :       0.00       0.00          0          0          0          0          0          0          0          0          0          0          0
  convexproj       :       0.00       0.00          0          0          0          0          0          0          0          0          0          0          0
  disjunctive      :       0.00       0.00          0          0          0          0          0          0          0          0          0          0          0
  eccuts           :       0.00       0.00          0          0          0          0          0          0          0          0          0          0          0
  gauge            :       0.00       0.00          0          0          0          0          0          0          0          0          0          0          0
  gomory           :      11.67       0.00        496         10          0          0       8081       4379       3461        632        446        186          0
  > gomorymi       :          -          -          -          -          -          -          -       3832       3460        386        200        186          -
  > strongcg       :          -          -          -          -          -          -          -        547          1        246        246          0          -
  impliedbounds    :       0.02       0.00        521         12          0          0         44         70          0         62         62          0          0
  interminor       :       0.00       0.00          0          0          0          0          0          0          0          0          0          0          0
  intobj           :       0.00       0.00          0          0          0          0          0          0          0          0          0          0          0
  mcf              :       0.00       0.00          1          1          0          0          0          0          0          0          0          0          0
  minor            :       0.00       0.00          0          0          0          0          0          0          0          0          0          0          0
  mixing           :       0.01       0.00        527         12          0          0        213       2622          0        778        778          0          0
  oddcycle         :       0.00       0.00          0          0          0          0          0          0          0          0          0          0          0
  rapidlearning    :       0.00       0.00          0          0          0          0          0          0          0          0          0          0          0
  rlt              :       0.00       0.00         10         10          0          0          0          0          0          0          0          0          0
  zerohalf         :       0.10       0.00        498         12          0          0        151        856          5        415        414          1          0
Cutselectors       :   ExecTime  SetupTime      Calls  RootCalls   Selected     Forced   Filtered  RootSelec   RootForc   RootFilt 
  hybrid           :       0.03       0.00       8889         13      27259          0      10743        116          0        178
Pricers            :   ExecTime  SetupTime      Calls       Vars
  problem variables:       0.00          -          0          0
Branching Rules    :   ExecTime  SetupTime   BranchLP  BranchExt   BranchPS    Cutoffs    DomReds       Cuts      Conss   Children
  allfullstrong    :       0.00       0.00          0          0          0          0          0          0          0          0
  cloud            :       0.00       0.00          0          0          0          0          0          0          0          0
  distribution     :       0.00       0.00          0          0          0          0          0          0          0          0
  fullstrong       :       0.00       0.00          0          0          0          0          0          0          0          0
  inference        :       0.00       0.00          0          0          0          0          0          0          0          0
  leastinf         :       0.00       0.00          0          0          0          0          0          0          0          0
  lookahead        :       0.00       0.00          0          0          0          0          0          0          0          0
  mostinf          :       0.00       0.00          0          0          0          0          0          0          0          0
  multaggr         :       0.00       0.00          0          0          0          0          0          0          0          0
  nodereopt        :       0.00       0.00          0          0          0          0          0          0          0          0
  pscost           :       0.00       0.00          0          3          0          0          0          0          0          6
  random           :       0.00       0.00          0          0          0          0          0          0          0          0
  relpscost        :       3.90       0.00       8455          0          0          0       1288          0        121      16278
  vanillafullstrong:       0.00       0.00          0          0          0          0          0          0          0          0
Primal Heuristics  :   ExecTime  SetupTime      Calls      Found       Best
  LP solutions     :       0.00          -          -         14         14
  relax solutions  :       0.00          -          -          0          0
  pseudo solutions :       0.00          -          -          0          0
  strong branching :       0.00          -          -          0          0
  actconsdiving    :       0.00       0.00          0          0          0
  adaptivediving   :       0.16       0.00         29          0          0
  alns             :       0.34       0.00          6          0          0
  bound            :       0.00       0.00          0          0          0
  clique           :       0.01       0.00          1          0          0
  coefdiving       :       0.00       0.00          0          0          0
  completesol      :       0.00       0.00          0          0          0
  conflictdiving   :       0.05       0.00         15          0          0
  crossover        :       0.98       0.00          7          7          0
  dins             :       0.00       0.00          0          0          0
  distributiondivin:       0.26       0.00         14          0          0
  dps              :       0.00       0.00          0          0          0
  dualval          :       0.00       0.00          0          0          0
  farkasdiving     :       0.00       0.00          0          0          0
  feaspump         :       0.04       0.00          3          0          0
  fixandinfer      :       0.00       0.00          0          0          0
  fracdiving       :       0.04       0.00         15          0          0
  gins             :       0.01       0.00          0          0          0
  guideddiving     :       0.06       0.00         15          0          0
  indicator        :       0.01       0.00          0          0          0
  indicatordiving  :       0.00       0.00          0          0          0
  intdiving        :       0.00       0.00          0          0          0
  intshifting      :       0.01       0.00         10          0          0
  linesearchdiving :       0.06       0.00         15          0          0
  localbranching   :       0.00       0.00          0          0          0
  locks            :       0.00       0.00          1          0          0
  lpface           :       0.00       0.00          0          0          0
  mpec             :      11.72       0.00          2          1          1
  multistart       :       0.00       0.00          0          0          0
  mutation         :       0.00       0.00          0          0          0
  nlpdiving        :       7.12       0.00          1          1          0
  objpscostdiving  :       0.16       0.00          8          0          0
  octane           :       0.00       0.00          0          0          0
  ofins            :       0.00       0.00          0          0          0
  oneopt           :       0.01       0.00         28          0          0
  padm             :       0.00       0.00          0          0          0
  proximity        :       0.00       0.00          0          0          0
  pscostdiving     :       0.09       0.00         15          0          0
  randrounding     :       0.03       0.00       1380          0          0
  rens             :       0.09       0.00          1          1          1
  reoptsols        :       0.00       0.00          0          0          0
  repair           :       0.00       0.00          0          0          0
  rins             :       7.44       0.00         11         11          1
  rootsoldiving    :       0.12       0.00          8          0          0
  rounding         :       0.13       0.00       1800          0          0
  shiftandpropagate:       0.00       0.00          1          0          0
  shifting         :       0.18       0.00        616          0          0
  simplerounding   :       0.01       0.00          0          0          0
  subnlp           :       0.16       0.00         13          0          0
  trivial          :       0.00       0.00          2          0          0
  trivialnegation  :       0.00       0.00          0          0          0
  trustregion      :       0.00       0.00          0          0          0
  trysol           :       0.01       0.00         15         15         14
  twoopt           :       0.00       0.00          0          0          0
  undercover       :       0.00       0.00          1          0          0
  vbounds          :       0.00       0.00          0          0          0
  veclendiving     :       0.03       0.00         15          0          0
  zeroobj          :       0.00       0.00          0          0          0
  zirounding       :       0.04       0.00       1000          0          0
  other solutions  :          -          -          -          0          -
Expressions        :   #IntEval  IntEvalTi   #RevProp  RevPropTi    DomReds    Cutoffs  #Estimate  EstimTime  Branching  #Simplify SimplifyTi Simplified
  pow              :          0       0.00          0       0.00          0          0          0       0.00          0          0       0.00          0
  prod             :     439504       0.13      10023       0.01       3978          0     394428      19.11        297        288       0.00        168
  sum              :     219752       0.06      68853       0.04       8633          0       1523       0.00          0        480       0.00        312
  val              :          0       0.00          0       0.00          0          0          0       0.00          0          0       0.00          0
  var              :     300860       0.02          0       0.00          0          0          0       0.00          0        720       0.00        168
  varidx           :          0       0.00          0       0.00          0          0          0       0.00          0          0       0.00          0
Nlhdlrs            :    Detects  DetectAll DetectTime   #IntEval  IntEvalTi   #RevProp  RevPropTi    DomReds    Cutoffs   #Enforce   EnfoTime       Cuts  Branching
  soc              :          0          0       0.00          0       0.00          0       0.00          0          0          0       0.00          0          0
  convex           :          0          0       0.00          0       0.00          0       0.00          0          0          0       0.00          0          0
  concave          :          0          0       0.00          0       0.00          0       0.00          0          0          0       0.00          0          0
  quotient         :          0          0       0.00          0       0.00          0       0.00          0          0          0       0.00          0          0
  quadratic        :         24        216       0.00      54787       0.08      17679       0.05       4800          0          0       0.00          0          0
  default          :        384       3660       0.00     659499       0.24      79494       0.12      12611          0     395951      19.71      25249          0
  bilinear         :          0          0       0.00          0       0.00          0       0.00          0          0          0       0.00          0          0
  perspective      :          0          0       0.00          0       0.00          0       0.00          0          0          0       0.00          0          0
LP                 :       Time      Calls Iterations  Iter/call   Iter/sec  Time-0-It Calls-0-It    ItLimit
  primal LP        :       3.09       1736          0       0.00       0.00       3.09       1736
  dual LP          :      42.31      25367     317174      12.57    7497.23       0.07        144
  lex dual LP      :       0.00          0          0       0.00          -
  barrier LP       :       0.00          0          0       0.00          -       0.00          0
  resolve instable :       0.00          0          0       0.00          -
  diving/probing LP:       1.14        597       7931      13.28    6972.27
  strong branching :       2.24       1013      29364      28.99   13081.42          -          -        231
    (at root node) :          -         19       1469      77.32          -
  conflict analysis:       0.00          4         40      10.00          -
NLP relaxation     :
  solve time       :       7.11 (13 calls)
  convexity        :  nonconvex (1930 linear rows, 0 convex ineq., 60 nonconvex ineq., 0 nonlinear eq. or two-sided ineq.)
NLP Solvers        :  #Problems  ProblemTi    #Solves  SolveTime      #Iter  Time/Iter      #Okay #TimeLimit #IterLimit #LObjLimit #Interrupt  #NumError #EvalError  #OutOfMem #LicenseEr #OtherTerm   #GlobOpt    #LocOpt  #Feasible #LocInfeas #GlobInfea #Unbounded   #Unknown
  ipopt            :          3       0.09         16      18.80        659       0.03         13          0          3          0          0          0          0          0          0          0          0         10          2          3          0          0          1
B&B Tree           :
  number of runs   :          1
  nodes            :      16330 (8258 internal, 8072 leaves)
  feasible leaves  :         14
  infeas. leaves   :        184
  objective leaves :       7874
  nodes (total)    :      16330 (8258 internal, 8072 leaves)
  nodes left       :          0
  max depth        :         50
  max depth (total):         50
  backtracks       :       3567 (21.8%)
  early backtracks :          0 (0.0%)
  nodes exc. ref.  :          0 (0.0%)
  delayed cutoffs  :         10
  repropagations   :         58 (424 domain reductions, 9 cutoffs)
  avg switch length:       5.12
  switching time   :       5.04
Root Node          :
  First LP value   : +0.00000000000000e+00
  First LP Iters   :         64 (16297.43 Iter/sec)
  First LP Time    :       0.00
  Final Dual Bound : +0.00000000000000e+00
  Final Root Iters :        626
  Root LP Estimate : +1.88375728028902e+01
Solution           :
  Solutions found  :         50 (31 improvements)
  First Solution   : +8.53149059033333e+01   (in run 1, after 1 nodes, 0.25 seconds, depth 0, found by <trysol>)
  Gap First Sol.   :   infinite
  Gap Last Sol.    :     409.03 %
  Primal Bound     : +9.95307140936666e+00   (in run 1, after 4260 nodes, 64.60 seconds, depth 33, found by <relaxation>)
  Dual Bound       : +9.95307140936666e+00
  Gap              :       0.00 %
Integrals          :      Total       Avg%
  primal-dual      :   10334.12      83.06
  primal-ref       :          -          - (not evaluated)
  dual-ref         :          -          - (not evaluated)
